45

 0   0   0   0   0   0   0   0   0   0   0   0   0   0   0   0   0   0   0   0   0   0   7  31  31  31  31  31  31  31  29  29  29  29  29  29  29  29  10  15   4  13  18   4  14  
 0   0   0   0   0   0   0   0   0   0   0   0   0   0   0   0   0   0   0   0   0   0  31  31  31  31  31  31  31  31   9  29  29  29  29  29  29  29  14  12   3  14   3  17  20  
 0   0   0   0   0   0   0   0   0   0   0   0   1   0   0   0   0   0   0   0   0   0  31   2  31  31  31  31  31  31  29  29  29  29  29  29  29  29   1  17   1  14   9   6   5  
 0   0   0   0   0   0   0   0   0   0   0   0   0   0   0   0   0   0   0   0   0   0  31  31  31  31  31  31  31  31  29  29  29  29  29  29  29   5  11   9   5  17  12  13  14  
 0   0   0   0   0   0   0   0   0   0   0   8   0   0   0   0   0   0   0   0   0   0  31  31  31  31  31  31  31  31  29  29  29  29  29  29  29  29   5   5   6  19   8  15   2  
 0   0   0   0   0   0   0   0   0   0   0   0   0   0   0   0   0   0   0   0   0   0  31  31  31  31  31  31  31  31  29  29  29  29  29  29  29  29   1  17  19   5  14  11   1  
 0   0   0   0   0   0   0   0   0   0   0   0   0   0   0   0   0   0   0   0   3   0  31  31  31  31   6  31  31  31  29  29  29  29  29  29  29  29  12  20  10  18  14   6   3  
 0   0   0   0   0   0   0   0   0   0   0   0   0   0   0   0   0   0   0   0   0   0  31  31  31  31  31  31  31  31  29  29  29  29  29  29  29  29  16  20   7  17   3  19  14  
 0   0   0   0   0   0   0   0   0   0   0   0   0   0   0   0   0   0   0   0   0   0  27  27  27  27  27  27  27  27  19   9  19   3   5  13   6   5  26  26  26  26  26  26  26  
 0   0   0   0   0   0   0   0   0   0   0   0   0   0   0   0   0   0   0   0   0   0  27  27  27  27  27  27  27  27   5   3  20   7   2  10  16  10   1  26  26  26  26  26  26  
 0   0   0   0   0   0   0   0   0   0   0   0   0   0   0   0   0   0   0   0   0   0  27  27  27  27  27  27  27  27   3  16   6   4  16   8   5  10   4  26  26  26  26  26  26  
 0   0   0   0   8   0   0   0   0   0   0   0   0   0   0   0   0   0   0   0   0   0  27  27  27   5  27   1  27  27   4  19  19  10  20  18   3  18  26  26  26  26  26  26  26  
 0   0   1   0   0   0   0   0   0   0   0   0   0   0   0   0   0   0   0   0   1   0  27  27  27  27  27  27  27  27   7   1  15  15  20   8  16   7  26  26  26  26  26  26  26  
 0   0   0   0   0   0   0   0   0   0   0   0   0   0   0   0   0   0   0   0   0   0  27  27  27  27  27  27  27  27   1  20   1   1   2  16  12  14  26  26  26  26  26  26  26  
 0   0   0   0   0   0   0   0   0   0   0   0   0   0   0   0   0   0   0   0   0   0  27  27  27  27  27   5  27  27   6  12   6  14   5  19   4  17  26  26  26  26  26  26  26  
 0   0   0   0   0   0   0   0   0   0   0   0   0   0   0   0   0   0   0   0   0   0  10  14   1   1   6   1  12   1  31  31  31  31  31  31  31  31  26  26  26  26  26  26  26  
 0   0   0   0   0   0   0   0   0   0   0   0   0   0   0   0   0   0   0   0   0   0  17   1   1   5  19  19   5   3  31  31  31  31  31  31  31  31  26   7  26  26  26  26  26  
 0   0   0   0   0   0   0   0   0   0   0   0   0   0   0   0   0   0   0   0   0   3   8   5  19  14   9  14  20   3  31  31  31  31  31  31  31  31  26  26  26  26  26  26  26  
 0   0   0   0   0   0   0   0   0   0   0   0   0   0   0   0   0   0   0   0   0   0   3  16   5  15  19  14  14  12  31  31  31  31  31  31  31  31  26  26  26  26  26  26  26  
 0   0   0   0   0   0   0   0   0   0   0   0   0   0   0   0   0   0   0   0   0   0   3  20   6  16  11  15   1  16  31  31  31  31  31  31  31  31  26  26  26  26  26  26  26  
 0   0   0   0   0   0   3   0   0   0   0   0   1   0   0   0   0   0   0   0   0   0   5   8  14   8  11  12  17  11  31  31  31  31  31  31  31  31  26  26  26  26  26  26  26  
 0   0   0   0   0   0   0   0   0   0   0   0   0   0   0   0   0   3   0   0   0   0   4   8  17  20   8  19   3  20  31  31  31  31  31  31  31  31  26  26  26  26  26  26  26  
 7  31  31  31  31  31  31  31  27  27  27  27  27  27  27   3  18   2  18   6  12  14   0   0   0   0   0   0   4   0   0   0   0   0   0   0   0   0   0   0   0   0   0   0   0  
31  31   2  31  31  31  31  31  27  27  27  27  27  27  27  13  12   8  12  20   9  14   0   0   0   0   0   0   0   0   0   0   0   0   0   0   0   0   0   0   0   0   0   0   0  
31  31  31  31  31  31  31  31  27  27  27  27  27  27  27   8   5   2  13  11  11   7   0   0   0   0   0   0   0   0   0   0   0   6   0   0   4   0   0   0   0   0   0   0   0  
31  31  31  31  31  31  31  31  27  27  27   5  27  27  27   7   5   2  15   4  18   9   0   0   0   0   0   9   0   0   0   0   0   0   0   0   0   0   0   0   0   0   0   0   0  
31  31  31  31  31  31   6  31  27  27  27  27  27  27  27  10   8  15   3   5   9  20   0   0   0   0   0   0   0   0   0   0   0   0   0   0   0   0   0   0   0   0   0   0   0  
31  31  31  31  31  31  31  31  27  27  27   1  27  27   5   2   1   6   2  10   1  16   0   0   0   9   0   0   0   0   0   0   0   0   0   0   0   0   0   6   0   0   0   0   0  
31  31  31  31  31  31  31  31  27  27  27  27  27  27  27  12   5   7  10  16   9  20   4   0   0   0   0   0   0   0   0   0   0   0   0   0   0   0   0   0   0   0   0   0   0  
31  31  31  31  31  31  31  31  27  27  27  27  27  27  27   7   1   2   9   1  15   6   0   0   0   0   0   0   0   0   0   0   0   0   0   0   0   0   0   0   0   0   0   0   0  
29   9  29  29  29  29  29  29   4  14  16   9   5  20   5  31  31  31  31  31  31  31   0   0   0   0   0   0   0   0   0   0   0   0   0   0   0   0   0   0   0   0   0   0   0  
29  29  29  29  29  29  29  29   9   6  12  16   1  19  20  31  31  31  31  31  31  31   0   0   0   0   0   0   0   0   0   0   0   0   0   0   0   0   0   0   0   0   0   0   0  
29  29  29  29  29  29  29  29   3  18  20  11   3   9   8  31  31  31  31  31  31  31   0   0   0   0   0   0   0   0   0   0   0   0   0   0   0   0   0   0   0   0   0   0   0  
29  29  29  29  29  29  29  29   8   1   6  11  16  10  10  31  31  31  31  31  31  31   0   0   6   0   0   0   0   0   0   0   0   0   6   0   0   0   2   0   0   0   0   0   0  
29  29  29  29  29  29  29  29  17   1  17  15  17  11  20  31  31  31  31  31  31  31   0   0   0   0   0   0   0   0   0   0   0   6   0   0   0   0   0   0   0   0   0   0   0  
29  29  29  29  29  29  29  29  16   5  16  14  12  16  17  31  31  31  31  31  31  31   0   0   0   0   0   0   0   0   0   0   0   0   0   0   0   0   0   0   0   0   4   0   0  
29  29  29  29  29  29  29  29  12   3  12   7  14   1  17  31  31  31  31  31  31  31   0   0   4   0   0   0   0   0   0   0   0   0   0   0   0   8   0   0   0   0   0   0   0  
29  29  29   5  29  29  29  29   6  12  15  16   3  17  17  31  31  31  31  31  31  31   0   0   0   0   0   0   0   0   0   0   0   0   0   0   8   0   0   0   0   0   0   0   0  
 2  19  15   8   5  20   9   5  26   1   4  26  26  26  26  26  26  26  26  26  26  26   0   0   0   0   0   0   0   0   0   0   0   2   0   0   0   0   0   0   0   0   0   0   0  
14  13  15   8  16  18  18  20  26  26  26  26  26  26  26  26   7  26  26  26  26  26   0   0   0   0   0   6   0   0   0   0   0   0   0   0   0   0   0   0   0   0   0   0   0  
 6  12   9   7   8   5   3   3  26  26  26  26  26  26  26  26  26  26  26  26  26  26   0   0   0   0   0   0   0   0   0   0   0   0   0   0   0   0   0   0   0   0   0   0   0  
20  19   9  10   5   5  20   5  26  26  26  26  26  26  26  26  26  26  26  26  26  26   0   0   0   0   0   0   0   0   0   0   0   0   0   0   0   0   0   0   0   0   0   0   0  
13  20   2   3   9  17  13   3  26  26  26  26  26  26  26  26  26  26  26  26  26  26   0   0   0   0   0   0   0   0   0   0   0   0   0   4   0   0   0   0   0   0   0   0   0  
 5   3   3  13   4   2   2  14  26  26  26  26  26  26  26  26  26  26  26  26  26  26   0   0   0   0   0   0   0   0   0   0   0   0   0   0   0   0   0   0   0   0   0   0   0  
16   8   7  11   7  19  14  17  26  26  26  26  26  26  26  26  26  26  26  26  26  26   0   0   0   0   0   0   0   0   0   0   0   0   0   0   0   0   0   0   0   0   0   0   0  

 0  11   9   9   4  14  17  19  30  30   4  30  30  30  30  26  26  26  26  26  26  26   0   0   0   0   0   0   0   0   0   0   0   0   0   0   0   0   0   0   0   7   0   0   0  
 2   0  16   2   8  18  16   7   2  30  30  30  30  30  30  26  26  26  26  26  26   3   0   0   0   5   0   0   0   0   0   0   0   4   0   0   0   0   0   0   0   0   0   0   0  
 5   3   0   5   3   7   4  18  30  30  30  30   6  30  30  26  26  26  26  26  26  26   0   0   0   0   0   0   0   0   0   0   0   0   0   0   0   0   0   4   0   0   0   0   0  
16   1   5   0  17  10   7  13  30  30  30  30  30  30  30  26   3  26  26  26  26  26   0   0   0   0   0   0   0   0   0   0   0   0   0   0   0   0   0   3   0   0   0   0   0  
13  15   9  15   0  20  12  16  30  30  30  30  30  30  30  26   1  26  26  26  26  26   0   0   0   0   0   0   0   0   0   0   0   0   0   0   0   0   4   0   0   0   0   0   0  
14  14  17   4  12   0   3  19  30  30  30  30  30  30  30  26  26  26  26  26  26  26   0   0   0   0   0   0   0   0   0   0   5   0   0   0   6   0   0   8   0   0   0   0   0  
13  12   8  11   6   3   0  12  30  30  30  30  30  30  30   5  26  26  26   5  26  26   0   0   0   0   0   0   0   0   0   3   0   0   0   0   0   0   0   0   0   0   0   0   0  
 2   2   3  16  15   7   7   0  30  30  30  30  30  30  30  26  26  26  26  26  26  26   0   0   0   0   0   0   0   0   0   0   0   0   0   0   0   0   0   0   0   0   0   0   8  
30   2  30  30  30  30  30  30   0   1  10  15  18   9   7  28  28  28  28  28  28  28   0   0   0   0   0   0   0   0   0   0   0   0   0   0   0   0   0   0   0   0   0   0   0  
30  30  30  30  30  30  30  30   5   0  12   1  10   1   9  28  28  28  28   5  28  28   6   0   0   0   0   0   0   0   8   0   0   0   0   0   0   0   0   0   0   0   0   0   5  
 4  30  30  30  30  30  30  30  16  11   0   6   2  15  13  28  28   9  28  28  28  28   0   0   0   0   0   0   0   0   0   0   0   0   7   0   0   0   0   0   0   1   0   0   0  
30  30  30  30  30  30  30  30   4  19   1   0  13   1  14  28  28  28  28  28  28  28   0   0   0   0   0   0   0   0   0   0   0   0   0   0   0   0   0   0   0   0   0   0   0  
30  30   6  30  30  30  30  30  15   9  15  18   0  10  11  28  28  28  28  28  28  28   0   0   0   0   0   0   0   0   7   0   0   0   0   0   0   0   0   0   0   0   0   0   0  
30  30  30  30  30  30  30  30  18   7   5  18  19   0   1  28  28   4  28  28   3  28   0   0   0   0   0   0   0   0   0   0   0   0   0   0   0   0   0   0   0   0   0   2   7  
30  30  30  30  30  30  30  30   1   7  20   1   3  17   0  28  28  28  28  28  28  28   0   0   0   0   0   0   0   0   0   0   0   0   0   0   0   0   0   0   0   2   0   0   1  
26  26  26  26  26  26   5  26  28  28  28  28  28  28  28   0   7   3  13  11   5  19   0   0   0   0   0   0   0   0   0   0   0   0   0   0   0   0   0   0   8   0   0   0   0  
26  26  26   3   1  26  26  26  28  28  28  28  28  28  28  11   0  18  12  14   5  16   0   0   0   0   0   4   0   0   0   0   0   0   0   0   0   0   0   0   0   0   0   0   0  
26  26  26  26  26  26  26  26  28  28   9  28  28   4  28  11  12   0  14   7   5  14   0   0   0   0   0   0   0   0   0   0   0   0   0   0   0   0   0   0   0   0   0   0   0  
26  26  26  26  26  26  26  26  28  28  28  28  28  28  28   5   4   8   0   6  13   3   0   0   0   0   0   0   0   0   0   0   0   0   2   0   0   0   0   0   0   0   0   0   0  
26  26  26  26  26  26   5  26  28   5  28  28  28  28  28   5  12   7  20   0  14   9   0   0   0   8   0   0   0   0   0   0   0   0   0   0   0   4   0   0   2   0   0   5   6  
26  26  26  26  26  26  26  26  28  28  28  28  28   3  28   5  13   4   3   6   0   9   0   0   0   0   0   0   0   0   0   0   0   0   0   0   0   0   0   0   0   0   0   7   0  
26   3  26  26  26  26  26  26  28  28  28  28  28  28  28  12  14   6   2   8  20   0   0   0   0   0   9   0   0   0   0   0   0   0   0   0   0   0   0   0   0   0   0   0   0  
 0   0   0   0   0   0   0   0   0   6   0   0   0   0   0   0   0   0   0   0   0   0   3   9   1   1   1  13  10  10  27  27  27  27  27  27  27  27  31  31  31  31  31   1  31  
 0   0   0   0   0   0   0   0   0   0   0   0   0   0   0   0   0   0   0   0   0   0  15  16   5   8   7   5  17  15  27  27  27  27  27  27  27  27  31  31  31  31  31  31  31  
 0   0   0   0   0   0   0   0   0   0   0   0   0   0   0   0   0   0   0   0   0   0  17   3  14  19  14   2  16  11  27  27  27  27  27  27  27  27  31  31  31  31  31  31  31  
 0   5   0   0   0   0   0   0   0   0   0   0   0   0   0   0   0   0   0   8   0   0  18  16  15  20   7   6   1  20  27  27  27  27  27  27  27  27  31  31  31  31  31  31  31  
 0   0   0   0   0   0   0   0   0   0   0   0   0   0   0   0   0   0   0   0   0   9  14  12   5  15  16  17  12  18  27  27   4  27  27  27  27  27  31  31  31  31  31  31  31  
 0   0   0   0   0   0   0   0   0   0   0   0   0   0   0   0   4   0   0   0   0   0  14   5   7  12  12   2   8  14  27  27  27  27  27  27  27  27  31  31  31  31  31  31  31  
 0   0   0   0   0   0   0   0   0   0   0   0   0   0   0   0   0   0   0   0   0   0  11   1  18  17   2  18  17   7  27  27  27  27  27  27  27   6  31  31  31  31  31  31  31  
 0   0   0   0   0   0   0   0   0   0   0   0   0   0   0   0   0   0   0   0   0   0  13   2   1   6  12  17   3   9  27  27  27  27  27  27  27  27  31  31   6  31  31  31  31  
 0   0   0   0   0   0   0   0   0   8   0   0   7   0   0   0   0   0   0   0   0   0  27  27  27  27  27  27  27  27   7  20  16   6  15  19   8   8  28  28   4  28  28  28  28  
 0   0   0   0   0   0   3   0   0   0   0   0   0   0   0   0   0   0   0   0   0   0  27  27  27  27  27  27  27  27  16  10   6   4  13  19  15  20  28  28  28  28  28  28  28  
 0   0   0   0   0   5   0   0   0   0   0   0   0   0   0   0   0   0   0   0   0   0  27  27  27  27   4  27  27  27  15   5   1   5  18  16  19  10  28  28  28  28  28  28  28  
 0   4   0   0   0   0   0   0   0   0   0   0   0   0   0   0   0   0   0   0   0   0  27  27  27  27  27  27  27  27  11  20   5  10   1  14   8   9  28  28  28  28  28  28  28  
 0   0   0   0   0   0   0   0   0   0   7   0   0   0   0   0   0   0   2   0   0   0  27  27  27  27  27  27  27  27  15   8   7   5   1  10  20   2  28  28  28   2   7  28  28  
 0   0   0   0   0   0   0   0   0   0   0   0   0   0   0   0   0   0   0   0   0   0  27  27  27  27  27  27  27  27  14   6   7  13   1  14   4   6  28  28  28  28  28  28  28  
 0   0   0   0   0   6   0   0   0   0   0   0   0   0   0   0   0   0   0   0   0   0  27  27  27  27  27  27  27  27   3   7   5  17  13  13  12   3  28  28  28  28  28  28  28  
 0   0   0   0   0   0   0   0   0   0   0   0   0   0   0   0   0   0   0   4   0   0  27  27  27  27  27  27   6  27  13   3  18   7   9  13   3   4  28  28  28  28  28  28  28  
 0   0   0   0   4   0   0   0   0   0   0   0   0   0   0   0   0   0   0   0   0   0  31  31  31  31  31  31  31  31  28  28  28  28  28  28  28  28  16  18  12  18  10   1  10  
 0   0   4   3   0   8   0   0   0   0   0   0   0   0   0   0   0   0   0   0   0   0  31  31  31  31  31  31  31  31  28  28  28  28  28  28  28  28  20   7   3   3   7   8  11  
 0   0   0   0   0   0   0   0   0   0   0   0   0   0   0   8   0   0   0   2   0   0  31  31  31  31  31  31  31   6   4  28  28  28  28  28  28  28  15   2  20  12  16  14  18  
 7   0   0   0   0   0   0   0   0   0   1   0   0   0   2   0   0   0   0   0   0   0  31  31  31  31  31  31  31  31  28  28  28  28   2  28  28  28  18   4  20   5  13  13  20  
 0   0   0   0   0   0   0   0   0   0   0   0   0   0   0   0   0   0   0   0   0   0  31  31  31  31  31  31  31  31  28  28  28  28   7  28  28  28  10  15  19   7   4   8   9  
 0   0   0   0   0   0   0   0   0   0   0   0   0   2   0   0   0   0   0   5   7   0   1  31  31  31  31  31  31  31  28  28  28  28  28  28  28  28   5  10  20  14  17   4   8  
 0   0   0   0   0   0   0   8   0   5   0   0   0   7   1   0   0   0   0   6   0   0  31  31  31  31  31  31  31  31  28  28  28  28  28  28  28  28   7  17  20  12  11  13  13  
